103 6
10 12 10 10 10 10
1 0 0 0 0 0 0 3 2 3 4
8 0 2 0 0 0 3 3 5 6 7
1 0 0 0 0 0 10 2 5 6
4 2 0 4 0 0 0 2 6 8
4 7 2 6 0 9 7 2 9 12
8 0 5 5 10 0 0 2 9 12
6 0 8 8 0 1 5 4 9 10 11 12
10 0 9 0 4 1 7 1 9
7 4 8 6 0 7 0 3 13 14 15
7 7 0 7 0 3 6 2 14 16
2 4 5 3 8 9 4 2 13 14
5 0 0 0 0 0 0 1 15
8 9 0 0 3 0 0 2 17 19
10 0 2 4 4 0 1 1 19
3 10 0 0 3 6 0 2 17 19
10 0 8 3 2 0 0 3 17 18 20
5 1 0 5 0 0 10 3 22 23 24
3 3 4 4 7 6 0 3 22 23 24
2 0 0 0 1 8 0 3 21 22 24
7 0 10 0 0 5 0 3 22 23 24
8 0 6 0 3 9 5 3 26 27 28
7 0 9 5 3 0 0 3 25 26 28
9 2 9 0 0 0 0 2 25 26
6 3 2 10 4 0 1 2 25 28
3 0 0 4 0 6 8 2 29 31
8 10 8 0 1 0 4 1 32
2 0 4 0 0 0 0 2 29 32
2 0 7 0 4 0 0 2 29 30
7 9 0 0 0 0 2 2 34 35
4 8 2 0 0 0 10 2 34 36
1 0 10 7 7 0 0 2 33 35
6 6 0 0 0 3 2 1 35
7 8 8 0 10 0 0 1 37
2 8 0 8 8 2 7 2 38 39
9 0 7 1 3 5 2 3 37 38 40
1 0 0 0 7 8 0 2 37 40
4 0 6 8 1 8 0 4 41 42 43 44
1 6 8 0 1 0 4 3 41 42 44
2 2 9 0 9 0 0 1 43
10 2 9 7 0 10 3 1 42
7 5 0 5 1 2 0 2 46 48
3 5 10 3 0 1 1 2 46 47
10 9 2 3 0 8 6 1 46
2 0 9 0 0 0 5 2 45 47
10 0 10 10 0 0 7 4 49 50 51 52
9 8 5 0 10 3 0 1 51
8 7 1 0 10 0 0 2 50 51
10 0 0 4 0 0 8 4 49 50 51 52
8 7 4 0 3 0 0 3 53 55 56
1 10 1 0 2 0 2 4 53 54 55 56
10 9 1 0 9 0 0 2 54 56
6 0 5 0 5 0 0 2 55 56
8 10 8 0 0 0 0 2 57 60
1 2 8 9 10 0 4 3 57 58 59
5 0 6 9 2 8 2 2 57 60
7 3 0 0 5 0 8 1 59
3 0 0 9 0 5 0 2 62 63
8 0 10 7 0 2 0 3 62 63 64
9 1 3 1 0 0 0 1 64
1 0 2 0 9 0 2 4 61 62 63 64
1 10 0 1 0 10 0 2 65 67
10 0 0 5 1 0 0 3 66 67 68
7 0 10 1 0 6 0 3 65 66 68
10 1 5 0 0 0 0 1 66
10 1 5 0 7 5 0 3 69 70 72
2 0 10 0 7 0 0 1 70
3 6 0 0 0 4 0 1 71
8 0 8 1 0 3 0 1 71
9 0 4 7 0 0 6 1 74
3 0 0 10 0 0 0 2 73 74
7 0 6 8 0 0 8 2 74 76
5 7 0 5 0 0 0 3 73 74 75
5 8 0 0 5 9 10 2 78 79
1 0 0 0 0 5 9 4 77 78 79 80
10 0 0 6 10 0 0 1 79
4 0 0 0 2 0 9 2 77 80
9 1 5 2 0 0 6 1 83
5 7 0 6 1 8 9 2 81 84
9 0 0 3 0 9 0 4 81 82 83 84
3 0 9 8 6 5 0 3 81 83 84
4 2 5 0 0 0 8 2 85 87
1 0 0 0 0 0 1 1 86
3 0 0 3 0 0 9 1 88
4 0 0 0 0 0 0 2 85 87
3 10 0 2 0 0 6 2 89 90
5 1 0 6 0 0 0 1 92
2 0 8 6 10 0 1 3 89 90 92
9 2 0 3 7 1 4 4 89 90 91 92
10 1 0 5 0 0 0 2 95 96
3 5 0 10 7 0 0 3 93 94 96
10 0 0 0 0 0 5 1 94
4 4 5 0 0 0 0 2 94 95
4 8 0 2 10 7 9 1 97
9 2 0 0 9 5 0 2 98 99
3 0 0 0 2 0 4 2 99 100
1 0 9 1 10 10 3 1 99
8 0 10 10 0 4 2 1 101
1 0 6 0 0 9 0 2 101 102
6 2 1 4 1 0 0 1 102
2 0 0 0 1 0 0 1 101
7 0 10 0 0 10 0 1 103
9 1 9 7 10 0 0 1 103
0 0 0 0 0 0 0 0
